Maximize
obj: x0_5 + x0_7 + x0_6 + x0_8 + x0_3 + x0_2 + x0_0 + x0_1 + x0_4 + x1_6 + x1_5 + x1_0 + x1_4 + x1_7 + x1_2 + x1_8 + x1_3 + x1_1 + x2_4 + x2_0 + x2_7 + x2_2 + x2_8 + x2_3 + x2_1 + x2_6 + x2_5 + x3_6 + x3_5 + x3_7 + x3_0 + x3_8 + x3_4 + x3_3 + x3_1 + x3_2 + x4_1 + x4_6 + x4_7 + x4_5 + x4_0 + x4_2 + x4_4 + x4_8 + x4_3 + x5_0 + x5_7 + x5_4 + x5_2 + x5_8 + x5_3 + x5_1 + x5_6 + x5_5 + x6_5 + x6_7 + x6_6 + x6_2 + x6_8 + x6_3 + x6_0 + x6_1 + x6_4 + x7_7 + x7_0 + x7_4 + x7_2 + x7_8 + x7_3 + x7_1 + x7_6 + x7_5 + x8_5 + x8_7 + x8_6 + x8_2 + x8_8 + x8_3 + x8_0 + x8_1 + x8_4 + x9_2 + x9_6 + x9_5 + x9_8 + x9_3 + x9_1 + x9_4 + x9_7 + x9_0 + x10_6 + x10_4 + x10_0 + x10_8 + x10_3 + x10_1 + x10_5 + x10_2 + x10_7
Subject To
c1: x0_5 + x0_7 + x0_6 + x0_8 + x0_3 + x0_2 + x0_0 + x0_1 + x0_4 <= 1
c2: x1_6 + x1_5 + x1_0 + x1_4 + x1_7 + x1_2 + x1_8 + x1_3 + x1_1 <= 1
c3: x2_4 + x2_0 + x2_7 + x2_2 + x2_8 + x2_3 + x2_1 + x2_6 + x2_5 <= 1
c4: x3_6 + x3_5 + x3_7 + x3_0 + x3_8 + x3_4 + x3_3 + x3_1 + x3_2 <= 1
c5: x4_1 + x4_6 + x4_7 + x4_5 + x4_0 + x4_2 + x4_4 + x4_8 + x4_3 <= 1
c6: x5_0 + x5_7 + x5_4 + x5_2 + x5_8 + x5_3 + x5_1 + x5_6 + x5_5 <= 1
c7: x6_5 + x6_7 + x6_6 + x6_2 + x6_8 + x6_3 + x6_0 + x6_1 + x6_4 <= 1
c8: x7_7 + x7_0 + x7_4 + x7_2 + x7_8 + x7_3 + x7_1 + x7_6 + x7_5 <= 1
c9: x8_5 + x8_7 + x8_6 + x8_2 + x8_8 + x8_3 + x8_0 + x8_1 + x8_4 <= 1
c10: x9_2 + x9_6 + x9_5 + x9_8 + x9_3 + x9_1 + x9_4 + x9_7 + x9_0 <= 1
c11: x10_6 + x10_4 + x10_0 + x10_8 + x10_3 + x10_1 + x10_5 + x10_2 + x10_7 <= 1
c12: x0_5 + x1_5 + x2_5 + x3_5 + x4_5 + x5_5 + x6_5 + x7_5 + x8_5 + x9_5 + x10_5 <= 1
c13: x0_7 + x1_7 + x2_7 + x3_7 + x4_7 + x5_7 + x6_7 + x7_7 + x8_7 + x9_7 + x10_7 <= 1
c14: x0_6 + x1_6 + x2_6 + x3_6 + x4_6 + x5_6 + x6_6 + x7_6 + x8_6 + x9_6 + x10_6 <= 1
c15: x0_8 + x1_8 + x2_8 + x3_8 + x4_8 + x5_8 + x6_8 + x7_8 + x8_8 + x9_8 + x10_8 <= 2
c16: x0_3 + x1_3 + x2_3 + x3_3 + x4_3 + x5_3 + x6_3 + x7_3 + x8_3 + x9_3 + x10_3 <= 1
c17: x0_2 + x1_2 + x2_2 + x3_2 + x4_2 + x5_2 + x6_2 + x7_2 + x8_2 + x9_2 + x10_2 <= 1
c18: x0_0 + x1_0 + x2_0 + x3_0 + x4_0 + x5_0 + x6_0 + x7_0 + x8_0 + x9_0 + x10_0 <= 2
c19: x0_1 + x1_1 + x2_1 + x3_1 + x4_1 + x5_1 + x6_1 + x7_1 + x8_1 + x9_1 + x10_1 <= 1
c20: x0_4 + x1_4 + x2_4 + x3_4 + x4_4 + x5_4 + x6_4 + x7_4 + x8_4 + x9_4 + x10_4 <= 1
Binary
x0_5 x0_7 x0_6 x0_8 x0_3 x0_2 x0_0 x0_1 x0_4 x1_6 x1_5 x1_0 x1_4 x1_7 x1_2 x1_8 x1_3 x1_1 x2_4 x2_0 x2_7 x2_2 x2_8 x2_3 x2_1 x2_6 x2_5 x3_6 x3_5 x3_7 x3_0 x3_8 x3_4 x3_3 x3_1 x3_2 x4_1 x4_6 x4_7 x4_5 x4_0 x4_2 x4_4 x4_8 x4_3 x5_0 x5_7 x5_4 x5_2 x5_8 x5_3 x5_1 x5_6 x5_5 x6_5 x6_7 x6_6 x6_2 x6_8 x6_3 x6_0 x6_1 x6_4 x7_7 x7_0 x7_4 x7_2 x7_8 x7_3 x7_1 x7_6 x7_5 x8_5 x8_7 x8_6 x8_2 x8_8 x8_3 x8_0 x8_1 x8_4 x9_2 x9_6 x9_5 x9_8 x9_3 x9_1 x9_4 x9_7 x9_0 x10_6 x10_4 x10_0 x10_8 x10_3 x10_1 x10_5 x10_2 x10_7 
End